data/MCDM/NO_CORR/GEN_FROM_60/10_ITEMS_1000_GEN/K5011W05.KNP.mps
NAME          BLANK   
ROWS
 N  OBJROW
 L  R0000000
COLUMNS
    C0000000  OBJROW     -70.          R0000000  115.        
    C0000001  OBJROW     -885.         R0000000  480.        
    C0000002  OBJROW     -534.         R0000000  363.        
    C0000003  OBJROW     -321.         R0000000  886.        
    C0000004  OBJROW     -235.         R0000000  702.        
    C0000005  OBJROW     -568.         R0000000  795.        
    C0000006  OBJROW     -940.         R0000000  415.        
    C0000007  OBJROW     -134.         R0000000  815.        
    C0000008  OBJROW     -79.          R0000000  563.        
    C0000009  OBJROW     -263.         R0000000  985.        
    C0000010  OBJROW     -77.          R0000000  95.         
RHS
    RHS       R0000000  16539.      
BOUNDS
 BV BOUND     C0000000  1.          
 BV BOUND     C0000001  1.          
 BV BOUND     C0000002  1.          
 BV BOUND     C0000003  1.          
 BV BOUND     C0000004  1.          
 BV BOUND     C0000005  1.          
 BV BOUND     C0000006  1.          
 BV BOUND     C0000007  1.          
 BV BOUND     C0000008  1.          
 BV BOUND     C0000009  1.          
 BV BOUND     C0000010  1.          
ENDATA
