data/MCDM/NO_CORR/GEN_FROM_60/10_ITEMS_1000_GEN/K5011W05.KNP.txt
N 11
M 12
LC 11
LC 12
LC 13
LC 14
LC 15
LC 16
LC 17
LC 18
LC 19
LC 20
LC 21
LR 1
LR 2
LR 3
LR 4
LR 5
LR 6
LR 7
LR 8
LR 9
LR 10
LR 11
LR 12
LO -70
LO -885
LO -534
LO -321
LO -235
LO -568
LO -940
LO -134
LO -79
LO -263
LO -77
OS 1
IC 203
IC 911
IC 563
IC 580
IC 322
IC 73
IC 627
IC 810
IC 223
IC 855
IC 720
IB 2944
